
        $ From http://www.csplib.org/Problems/prob009/data/helmut.pdf
        $ Problem number 47
        $ Sequence length : 24
        language ESSENCE' 1.0
        letting sizemaster be 479
        letting sizes be sequence(5,6,17,23,24,26,28,29,35,43,44,52,60,68,77,86,130,140,150,155,160,164,174,175)
        